p cnf 221 1085
55 37 19 13 7 1 0
-55 -37 0
-55 -19 0
-55 -118 0
-37 -19 0
-37 -118 0
-19 -118 0
-13 -7 0
-13 -1 0
-13 118 0
-7 -1 0
-7 118 0
-1 118 0
61 43 31 25 19 1 0
-61 -43 0
-61 -31 0
-61 -119 0
-43 -31 0
-43 -119 0
-31 -119 0
-25 -19 0
-25 -1 0
-25 119 0
-19 -1 0
-19 119 0
-1 119 0
67 49 43 37 25 7 0
-67 -49 0
-67 -43 0
-67 -120 0
-49 -43 0
-49 -120 0
-43 -120 0
-37 -25 0
-37 -7 0
-37 120 0
-25 -7 0
-25 120 0
-7 120 0
67 61 55 49 31 13 0
-67 -61 0
-67 -55 0
-67 -121 0
-61 -55 0
-61 -121 0
-55 -121 0
-49 -31 0
-49 -13 0
-49 121 0
-31 -13 0
-31 121 0
-13 121 0
56 38 20 14 8 2 0
-56 -38 0
-56 -20 0
-56 -122 0
-38 -20 0
-38 -122 0
-20 -122 0
-14 -8 0
-14 -2 0
-14 122 0
-8 -2 0
-8 122 0
-2 122 0
62 44 32 26 20 2 0
-62 -44 0
-62 -32 0
-62 -123 0
-44 -32 0
-44 -123 0
-32 -123 0
-26 -20 0
-26 -2 0
-26 123 0
-20 -2 0
-20 123 0
-2 123 0
68 50 44 38 26 8 0
-68 -50 0
-68 -44 0
-68 -124 0
-50 -44 0
-50 -124 0
-44 -124 0
-38 -26 0
-38 -8 0
-38 124 0
-26 -8 0
-26 124 0
-8 124 0
68 62 56 50 32 14 0
-68 -62 0
-68 -56 0
-68 -125 0
-62 -56 0
-62 -125 0
-56 -125 0
-50 -32 0
-50 -14 0
-50 125 0
-32 -14 0
-32 125 0
-14 125 0
57 39 21 15 9 3 0
-57 -39 0
-57 -21 0
-57 -126 0
-39 -21 0
-39 -126 0
-21 -126 0
-15 -9 0
-15 -3 0
-15 126 0
-9 -3 0
-9 126 0
-3 126 0
63 45 33 27 21 3 0
-63 -45 0
-63 -33 0
-63 -127 0
-45 -33 0
-45 -127 0
-33 -127 0
-27 -21 0
-27 -3 0
-27 127 0
-21 -3 0
-21 127 0
-3 127 0
69 51 45 39 27 9 0
-69 -51 0
-69 -45 0
-69 -128 0
-51 -45 0
-51 -128 0
-45 -128 0
-39 -27 0
-39 -9 0
-39 128 0
-27 -9 0
-27 128 0
-9 128 0
69 63 57 51 33 15 0
-69 -63 0
-69 -57 0
-69 -129 0
-63 -57 0
-63 -129 0
-57 -129 0
-51 -33 0
-51 -15 0
-51 129 0
-33 -15 0
-33 129 0
-15 129 0
58 40 22 16 10 4 0
-58 -40 0
-58 -22 0
-58 -130 0
-40 -22 0
-40 -130 0
-22 -130 0
-16 -10 0
-16 -4 0
-16 130 0
-10 -4 0
-10 130 0
-4 130 0
64 46 34 28 22 4 0
-64 -46 0
-64 -34 0
-64 -131 0
-46 -34 0
-46 -131 0
-34 -131 0
-28 -22 0
-28 -4 0
-28 131 0
-22 -4 0
-22 131 0
-4 131 0
70 52 46 40 28 10 0
-70 -52 0
-70 -46 0
-70 -132 0
-52 -46 0
-52 -132 0
-46 -132 0
-40 -28 0
-40 -10 0
-40 132 0
-28 -10 0
-28 132 0
-10 132 0
70 64 58 52 34 16 0
-70 -64 0
-70 -58 0
-70 -133 0
-64 -58 0
-64 -133 0
-58 -133 0
-52 -34 0
-52 -16 0
-52 133 0
-34 -16 0
-34 133 0
-16 133 0
59 41 23 17 11 5 0
-59 -41 0
-59 -23 0
-59 -134 0
-41 -23 0
-41 -134 0
-23 -134 0
-17 -11 0
-17 -5 0
-17 134 0
-11 -5 0
-11 134 0
-5 134 0
65 47 35 29 23 5 0
-65 -47 0
-65 -35 0
-65 -135 0
-47 -35 0
-47 -135 0
-35 -135 0
-29 -23 0
-29 -5 0
-29 135 0
-23 -5 0
-23 135 0
-5 135 0
71 53 47 41 29 11 0
-71 -53 0
-71 -47 0
-71 -136 0
-53 -47 0
-53 -136 0
-47 -136 0
-41 -29 0
-41 -11 0
-41 136 0
-29 -11 0
-29 136 0
-11 136 0
71 65 59 53 35 17 0
-71 -65 0
-71 -59 0
-71 -137 0
-65 -59 0
-65 -137 0
-59 -137 0
-53 -35 0
-53 -17 0
-53 137 0
-35 -17 0
-35 137 0
-17 137 0
60 42 24 18 12 6 0
-60 -42 0
-60 -24 0
-60 -138 0
-42 -24 0
-42 -138 0
-24 -138 0
-18 -12 0
-18 -6 0
-18 138 0
-12 -6 0
-12 138 0
-6 138 0
66 48 36 30 24 6 0
-66 -48 0
-66 -36 0
-66 -139 0
-48 -36 0
-48 -139 0
-36 -139 0
-30 -24 0
-30 -6 0
-30 139 0
-24 -6 0
-24 139 0
-6 139 0
72 54 48 42 30 12 0
-72 -54 0
-72 -48 0
-72 -140 0
-54 -48 0
-54 -140 0
-48 -140 0
-42 -30 0
-42 -12 0
-42 140 0
-30 -12 0
-30 140 0
-12 140 0
72 66 60 54 36 18 0
-72 -66 0
-72 -60 0
-72 -141 0
-66 -60 0
-66 -141 0
-60 -141 0
-54 -36 0
-54 -18 0
-54 141 0
-36 -18 0
-36 141 0
-18 141 0
6 5 4 3 2 1 0
-6 -5 0
-6 -4 0
-6 -142 0
-5 -4 0
-5 -142 0
-4 -142 0
-3 -2 0
-3 -1 0
-3 142 0
-2 -1 0
-2 142 0
-1 142 0
12 11 10 9 8 7 0
-12 -11 0
-12 -10 0
-12 -143 0
-11 -10 0
-11 -143 0
-10 -143 0
-9 -8 0
-9 -7 0
-9 143 0
-8 -7 0
-8 143 0
-7 143 0
18 17 16 15 14 13 0
-18 -17 0
-18 -16 0
-18 -144 0
-17 -16 0
-17 -144 0
-16 -144 0
-15 -14 0
-15 -13 0
-15 144 0
-14 -13 0
-14 144 0
-13 144 0
24 23 22 21 20 19 0
-24 -23 0
-24 -22 0
-24 -145 0
-23 -22 0
-23 -145 0
-22 -145 0
-21 -20 0
-21 -19 0
-21 145 0
-20 -19 0
-20 145 0
-19 145 0
30 29 28 27 26 25 0
-30 -29 0
-30 -28 0
-30 -146 0
-29 -28 0
-29 -146 0
-28 -146 0
-27 -26 0
-27 -25 0
-27 146 0
-26 -25 0
-26 146 0
-25 146 0
36 35 34 33 32 31 0
-36 -35 0
-36 -34 0
-36 -147 0
-35 -34 0
-35 -147 0
-34 -147 0
-33 -32 0
-33 -31 0
-33 147 0
-32 -31 0
-32 147 0
-31 147 0
42 41 40 39 38 37 0
-42 -41 0
-42 -40 0
-42 -148 0
-41 -40 0
-41 -148 0
-40 -148 0
-39 -38 0
-39 -37 0
-39 148 0
-38 -37 0
-38 148 0
-37 148 0
48 47 46 45 44 43 0
-48 -47 0
-48 -46 0
-48 -149 0
-47 -46 0
-47 -149 0
-46 -149 0
-45 -44 0
-45 -43 0
-45 149 0
-44 -43 0
-44 149 0
-43 149 0
54 53 52 51 50 49 0
-54 -53 0
-54 -52 0
-54 -150 0
-53 -52 0
-53 -150 0
-52 -150 0
-51 -50 0
-51 -49 0
-51 150 0
-50 -49 0
-50 150 0
-49 150 0
60 59 58 57 56 55 0
-60 -59 0
-60 -58 0
-60 -151 0
-59 -58 0
-59 -151 0
-58 -151 0
-57 -56 0
-57 -55 0
-57 151 0
-56 -55 0
-56 151 0
-55 151 0
66 65 64 63 62 61 0
-66 -65 0
-66 -64 0
-66 -152 0
-65 -64 0
-65 -152 0
-64 -152 0
-63 -62 0
-63 -61 0
-63 152 0
-62 -61 0
-62 152 0
-61 152 0
72 71 70 69 68 67 0
-72 -71 0
-72 -70 0
-72 -153 0
-71 -70 0
-71 -153 0
-70 -153 0
-69 -68 0
-69 -67 0
-69 153 0
-68 -67 0
-68 153 0
-67 153 0
21 20 19 3 2 1 0
-21 -20 0
-21 -19 0
-21 -154 0
-20 -19 0
-20 -154 0
-19 -154 0
-3 -2 0
-3 -1 0
-3 154 0
-2 -1 0
-2 154 0
-1 154 0
24 23 22 6 5 4 0
-24 -23 0
-24 -22 0
-24 -155 0
-23 -22 0
-23 -155 0
-22 -155 0
-6 -5 0
-6 -4 0
-6 155 0
-5 -4 0
-5 155 0
-4 155 0
39 38 37 9 8 7 0
-39 -38 0
-39 -37 0
-39 -156 0
-38 -37 0
-38 -156 0
-37 -156 0
-9 -8 0
-9 -7 0
-9 156 0
-8 -7 0
-8 156 0
-7 156 0
42 41 40 12 11 10 0
-42 -41 0
-42 -40 0
-42 -157 0
-41 -40 0
-41 -157 0
-40 -157 0
-12 -11 0
-12 -10 0
-12 157 0
-11 -10 0
-11 157 0
-10 157 0
57 56 55 15 14 13 0
-57 -56 0
-57 -55 0
-57 -158 0
-56 -55 0
-56 -158 0
-55 -158 0
-15 -14 0
-15 -13 0
-15 158 0
-14 -13 0
-14 158 0
-13 158 0
60 59 58 18 17 16 0
-60 -59 0
-60 -58 0
-60 -159 0
-59 -58 0
-59 -159 0
-58 -159 0
-18 -17 0
-18 -16 0
-18 159 0
-17 -16 0
-17 159 0
-16 159 0
21 20 19 3 2 1 0
-21 -20 0
-21 -19 0
-21 -160 0
-20 -19 0
-20 -160 0
-19 -160 0
-3 -2 0
-3 -1 0
-3 160 0
-2 -1 0
-2 160 0
-1 160 0
24 23 22 6 5 4 0
-24 -23 0
-24 -22 0
-24 -161 0
-23 -22 0
-23 -161 0
-22 -161 0
-6 -5 0
-6 -4 0
-6 161 0
-5 -4 0
-5 161 0
-4 161 0
45 44 43 27 26 25 0
-45 -44 0
-45 -43 0
-45 -162 0
-44 -43 0
-44 -162 0
-43 -162 0
-27 -26 0
-27 -25 0
-27 162 0
-26 -25 0
-26 162 0
-25 162 0
48 47 46 30 29 28 0
-48 -47 0
-48 -46 0
-48 -163 0
-47 -46 0
-47 -163 0
-46 -163 0
-30 -29 0
-30 -28 0
-30 163 0
-29 -28 0
-29 163 0
-28 163 0
63 62 61 33 32 31 0
-63 -62 0
-63 -61 0
-63 -164 0
-62 -61 0
-62 -164 0
-61 -164 0
-33 -32 0
-33 -31 0
-33 164 0
-32 -31 0
-32 164 0
-31 164 0
66 65 64 36 35 34 0
-66 -65 0
-66 -64 0
-66 -165 0
-65 -64 0
-65 -165 0
-64 -165 0
-36 -35 0
-36 -34 0
-36 165 0
-35 -34 0
-35 165 0
-34 165 0
39 38 37 9 8 7 0
-39 -38 0
-39 -37 0
-39 -166 0
-38 -37 0
-38 -166 0
-37 -166 0
-9 -8 0
-9 -7 0
-9 166 0
-8 -7 0
-8 166 0
-7 166 0
42 41 40 12 11 10 0
-42 -41 0
-42 -40 0
-42 -167 0
-41 -40 0
-41 -167 0
-40 -167 0
-12 -11 0
-12 -10 0
-12 167 0
-11 -10 0
-11 167 0
-10 167 0
45 44 43 27 26 25 0
-45 -44 0
-45 -43 0
-45 -168 0
-44 -43 0
-44 -168 0
-43 -168 0
-27 -26 0
-27 -25 0
-27 168 0
-26 -25 0
-26 168 0
-25 168 0
48 47 46 30 29 28 0
-48 -47 0
-48 -46 0
-48 -169 0
-47 -46 0
-47 -169 0
-46 -169 0
-30 -29 0
-30 -28 0
-30 169 0
-29 -28 0
-29 169 0
-28 169 0
69 68 67 51 50 49 0
-69 -68 0
-69 -67 0
-69 -170 0
-68 -67 0
-68 -170 0
-67 -170 0
-51 -50 0
-51 -49 0
-51 170 0
-50 -49 0
-50 170 0
-49 170 0
72 71 70 54 53 52 0
-72 -71 0
-72 -70 0
-72 -171 0
-71 -70 0
-71 -171 0
-70 -171 0
-54 -53 0
-54 -52 0
-54 171 0
-53 -52 0
-53 171 0
-52 171 0
57 56 55 15 14 13 0
-57 -56 0
-57 -55 0
-57 -172 0
-56 -55 0
-56 -172 0
-55 -172 0
-15 -14 0
-15 -13 0
-15 172 0
-14 -13 0
-14 172 0
-13 172 0
60 59 58 18 17 16 0
-60 -59 0
-60 -58 0
-60 -173 0
-59 -58 0
-59 -173 0
-58 -173 0
-18 -17 0
-18 -16 0
-18 173 0
-17 -16 0
-17 173 0
-16 173 0
63 62 61 33 32 31 0
-63 -62 0
-63 -61 0
-63 -174 0
-62 -61 0
-62 -174 0
-61 -174 0
-33 -32 0
-33 -31 0
-33 174 0
-32 -31 0
-32 174 0
-31 174 0
66 65 64 36 35 34 0
-66 -65 0
-66 -64 0
-66 -175 0
-65 -64 0
-65 -175 0
-64 -175 0
-36 -35 0
-36 -34 0
-36 175 0
-35 -34 0
-35 175 0
-34 175 0
69 68 67 51 50 49 0
-69 -68 0
-69 -67 0
-69 -176 0
-68 -67 0
-68 -176 0
-67 -176 0
-51 -50 0
-51 -49 0
-51 176 0
-50 -49 0
-50 176 0
-49 176 0
72 71 70 54 53 52 0
-72 -71 0
-72 -70 0
-72 -177 0
-71 -70 0
-71 -177 0
-70 -177 0
-54 -53 0
-54 -52 0
-54 177 0
-53 -52 0
-53 177 0
-52 177 0
73 -1 0
-79 -1 0
73 -7 0
-85 -7 0
73 -13 0
-91 -13 0
79 -19 0
-73 -19 0
79 -25 0
-85 -25 0
79 -31 0
-91 -31 0
85 -37 0
-73 -37 0
85 -43 0
-79 -43 0
85 -49 0
-91 -49 0
91 -55 0
-73 -55 0
91 -61 0
-79 -61 0
91 -67 0
-85 -67 0
74 -2 0
-80 -2 0
74 -8 0
-86 -8 0
74 -14 0
-92 -14 0
80 -20 0
-74 -20 0
80 -26 0
-86 -26 0
80 -32 0
-92 -32 0
86 -38 0
-74 -38 0
86 -44 0
-80 -44 0
86 -50 0
-92 -50 0
92 -56 0
-74 -56 0
92 -62 0
-80 -62 0
92 -68 0
-86 -68 0
75 -3 0
-81 -3 0
75 -9 0
-87 -9 0
75 -15 0
-93 -15 0
81 -21 0
-75 -21 0
81 -27 0
-87 -27 0
81 -33 0
-93 -33 0
87 -39 0
-75 -39 0
87 -45 0
-81 -45 0
87 -51 0
-93 -51 0
93 -57 0
-75 -57 0
93 -63 0
-81 -63 0
93 -69 0
-87 -69 0
76 -4 0
-82 -4 0
76 -10 0
-88 -10 0
76 -16 0
-94 -16 0
82 -22 0
-76 -22 0
82 -28 0
-88 -28 0
82 -34 0
-94 -34 0
88 -40 0
-76 -40 0
88 -46 0
-82 -46 0
88 -52 0
-94 -52 0
94 -58 0
-76 -58 0
94 -64 0
-82 -64 0
94 -70 0
-88 -70 0
77 -5 0
-83 -5 0
77 -11 0
-89 -11 0
77 -17 0
-95 -17 0
83 -23 0
-77 -23 0
83 -29 0
-89 -29 0
83 -35 0
-95 -35 0
89 -41 0
-77 -41 0
89 -47 0
-83 -47 0
89 -53 0
-95 -53 0
95 -59 0
-77 -59 0
95 -65 0
-83 -65 0
95 -71 0
-89 -71 0
78 -6 0
-84 -6 0
78 -12 0
-90 -12 0
78 -18 0
-96 -18 0
84 -24 0
-78 -24 0
84 -30 0
-90 -30 0
84 -36 0
-96 -36 0
90 -42 0
-78 -42 0
90 -48 0
-84 -48 0
90 -54 0
-96 -54 0
96 -60 0
-78 -60 0
96 -66 0
-84 -66 0
96 -72 0
-90 -72 0
97 -74 -73 0
97 74 73 0
102 -80 -79 0
102 80 79 0
107 -86 -85 0
107 86 85 0
112 -92 -91 0
112 92 91 0
98 -75 -74 0
98 75 74 0
103 -81 -80 0
103 81 80 0
108 -87 -86 0
108 87 86 0
113 -93 -92 0
113 93 92 0
99 -76 -75 0
99 76 75 0
104 -82 -81 0
104 82 81 0
109 -88 -87 0
109 88 87 0
114 -94 -93 0
114 94 93 0
100 -77 -76 0
100 77 76 0
105 -83 -82 0
105 83 82 0
110 -89 -88 0
110 89 88 0
115 -95 -94 0
115 95 94 0
101 -78 -77 0
101 78 77 0
106 -84 -83 0
106 84 83 0
111 -90 -89 0
111 90 89 0
116 -96 -95 0
116 96 95 0
-106 178 0
-97 178 0
-106 -97 179 0
-98 180 0
-99 180 0
-98 -99 181 0
-100 180 0
-98 -100 181 0
-99 -100 181 0
-98 -99 -100 182 0
-101 183 0
-102 183 0
-101 -102 184 0
-103 183 0
-101 -103 184 0
-102 -103 184 0
-101 -102 -103 185 0
-104 186 0
-105 186 0
-104 -105 187 0
-116 186 0
-104 -116 187 0
-105 -116 187 0
-104 -105 -116 188 0
-107 189 0
-108 189 0
-107 -108 190 0
-109 189 0
-107 -109 190 0
-108 -109 190 0
-107 -108 -109 191 0
-110 192 0
-111 192 0
-110 -111 193 0
-112 192 0
-110 -112 193 0
-111 -112 193 0
-110 -111 -112 194 0
-113 195 0
-114 195 0
-113 -114 196 0
-115 195 0
-113 -115 196 0
-114 -115 196 0
-113 -114 -115 197 0
-192 198 0
-193 199 0
-194 200 0
-195 198 0
-196 199 0
-197 200 0
-192 -195 199 0
-192 -196 200 0
-192 -197 201 0
-193 -195 200 0
-193 -196 201 0
-194 -195 201 0
-189 202 0
-190 203 0
-191 204 0
-198 202 0
-199 203 0
-200 204 0
-201 205 0
-189 -198 203 0
-189 -199 204 0
-189 -200 205 0
-190 -198 204 0
-190 -199 205 0
-191 -198 205 0
-186 206 0
-187 207 0
-188 208 0
-202 206 0
-203 207 0
-204 208 0
-205 209 0
-186 -202 207 0
-186 -203 208 0
-186 -204 209 0
-187 -202 208 0
-187 -203 209 0
-188 -202 209 0
-183 210 0
-184 211 0
-185 212 0
-206 210 0
-207 211 0
-208 212 0
-209 213 0
-183 -206 211 0
-183 -207 212 0
-183 -208 213 0
-184 -206 212 0
-184 -207 213 0
-185 -206 213 0
-180 214 0
-181 215 0
-182 216 0
-210 214 0
-211 215 0
-212 216 0
-213 217 0
-180 -210 215 0
-180 -211 216 0
-180 -212 217 0
-181 -210 216 0
-181 -211 217 0
-182 -210 217 0
-178 218 0
-179 219 0
-214 218 0
-215 219 0
-216 220 0
-217 221 0
-178 -214 219 0
-178 -215 220 0
-178 -216 221 0
-179 -214 220 0
-179 -215 221 0
-221 0
